c Generated after 1 tries
c Graph with 200 nodes and 750 edges, Max edges:19900
c generated from an undirected graph
c to solve unweighted MaxCut
p cnf 200 1500
1 16 0
-1 -16 0
1 26 0
-1 -26 0
1 41 0
-1 -41 0
1 49 0
-1 -49 0
1 91 0
-1 -91 0
1 113 0
-1 -113 0
1 155 0
-1 -155 0
1 158 0
-1 -158 0
2 45 0
-2 -45 0
2 133 0
-2 -133 0
2 161 0
-2 -161 0
2 191 0
-2 -191 0
2 196 0
-2 -196 0
3 21 0
-3 -21 0
3 78 0
-3 -78 0
3 80 0
-3 -80 0
3 87 0
-3 -87 0
3 100 0
-3 -100 0
3 124 0
-3 -124 0
3 147 0
-3 -147 0
3 199 0
-3 -199 0
4 10 0
-4 -10 0
4 40 0
-4 -40 0
4 43 0
-4 -43 0
4 46 0
-4 -46 0
4 47 0
-4 -47 0
4 61 0
-4 -61 0
4 72 0
-4 -72 0
4 127 0
-4 -127 0
4 131 0
-4 -131 0
4 144 0
-4 -144 0
4 152 0
-4 -152 0
4 182 0
-4 -182 0
4 194 0
-4 -194 0
5 63 0
-5 -63 0
5 70 0
-5 -70 0
5 78 0
-5 -78 0
5 102 0
-5 -102 0
5 113 0
-5 -113 0
5 116 0
-5 -116 0
5 120 0
-5 -120 0
5 157 0
-5 -157 0
5 169 0
-5 -169 0
5 172 0
-5 -172 0
5 176 0
-5 -176 0
6 39 0
-6 -39 0
6 87 0
-6 -87 0
6 114 0
-6 -114 0
6 194 0
-6 -194 0
7 77 0
-7 -77 0
7 103 0
-7 -103 0
7 114 0
-7 -114 0
7 123 0
-7 -123 0
7 163 0
-7 -163 0
8 126 0
-8 -126 0
8 170 0
-8 -170 0
8 177 0
-8 -177 0
9 13 0
-9 -13 0
9 18 0
-9 -18 0
9 57 0
-9 -57 0
9 80 0
-9 -80 0
9 87 0
-9 -87 0
9 92 0
-9 -92 0
9 130 0
-9 -130 0
9 132 0
-9 -132 0
9 136 0
-9 -136 0
9 167 0
-9 -167 0
9 184 0
-9 -184 0
9 192 0
-9 -192 0
9 194 0
-9 -194 0
10 59 0
-10 -59 0
10 106 0
-10 -106 0
10 125 0
-10 -125 0
10 133 0
-10 -133 0
10 161 0
-10 -161 0
10 169 0
-10 -169 0
10 199 0
-10 -199 0
11 36 0
-11 -36 0
11 57 0
-11 -57 0
11 68 0
-11 -68 0
11 80 0
-11 -80 0
11 187 0
-11 -187 0
12 25 0
-12 -25 0
12 52 0
-12 -52 0
12 99 0
-12 -99 0
12 196 0
-12 -196 0
13 19 0
-13 -19 0
13 26 0
-13 -26 0
13 72 0
-13 -72 0
13 145 0
-13 -145 0
13 149 0
-13 -149 0
13 151 0
-13 -151 0
13 154 0
-13 -154 0
13 165 0
-13 -165 0
13 196 0
-13 -196 0
14 90 0
-14 -90 0
14 141 0
-14 -141 0
14 157 0
-14 -157 0
14 170 0
-14 -170 0
14 177 0
-14 -177 0
14 180 0
-14 -180 0
15 66 0
-15 -66 0
15 75 0
-15 -75 0
15 99 0
-15 -99 0
15 104 0
-15 -104 0
15 116 0
-15 -116 0
15 137 0
-15 -137 0
15 166 0
-15 -166 0
15 167 0
-15 -167 0
15 170 0
-15 -170 0
15 177 0
-15 -177 0
15 180 0
-15 -180 0
15 182 0
-15 -182 0
16 41 0
-16 -41 0
16 48 0
-16 -48 0
16 56 0
-16 -56 0
16 68 0
-16 -68 0
16 77 0
-16 -77 0
16 190 0
-16 -190 0
17 27 0
-17 -27 0
17 39 0
-17 -39 0
17 48 0
-17 -48 0
17 66 0
-17 -66 0
17 69 0
-17 -69 0
17 97 0
-17 -97 0
17 99 0
-17 -99 0
17 132 0
-17 -132 0
18 23 0
-18 -23 0
18 92 0
-18 -92 0
18 99 0
-18 -99 0
18 101 0
-18 -101 0
18 110 0
-18 -110 0
18 113 0
-18 -113 0
18 190 0
-18 -190 0
18 192 0
-18 -192 0
19 42 0
-19 -42 0
19 58 0
-19 -58 0
19 152 0
-19 -152 0
19 154 0
-19 -154 0
19 188 0
-19 -188 0
20 23 0
-20 -23 0
20 25 0
-20 -25 0
20 31 0
-20 -31 0
20 115 0
-20 -115 0
21 86 0
-21 -86 0
21 90 0
-21 -90 0
21 111 0
-21 -111 0
21 153 0
-21 -153 0
21 183 0
-21 -183 0
22 28 0
-22 -28 0
22 35 0
-22 -35 0
22 36 0
-22 -36 0
22 71 0
-22 -71 0
22 87 0
-22 -87 0
22 92 0
-22 -92 0
22 109 0
-22 -109 0
22 132 0
-22 -132 0
22 134 0
-22 -134 0
22 176 0
-22 -176 0
22 200 0
-22 -200 0
23 30 0
-23 -30 0
23 39 0
-23 -39 0
23 121 0
-23 -121 0
23 159 0
-23 -159 0
23 177 0
-23 -177 0
23 200 0
-23 -200 0
24 93 0
-24 -93 0
24 177 0
-24 -177 0
24 192 0
-24 -192 0
25 73 0
-25 -73 0
25 81 0
-25 -81 0
25 102 0
-25 -102 0
25 114 0
-25 -114 0
25 121 0
-25 -121 0
25 135 0
-25 -135 0
25 139 0
-25 -139 0
25 160 0
-25 -160 0
25 173 0
-25 -173 0
26 28 0
-26 -28 0
26 40 0
-26 -40 0
26 64 0
-26 -64 0
26 72 0
-26 -72 0
26 101 0
-26 -101 0
26 111 0
-26 -111 0
26 113 0
-26 -113 0
26 123 0
-26 -123 0
26 182 0
-26 -182 0
27 37 0
-27 -37 0
27 47 0
-27 -47 0
27 48 0
-27 -48 0
27 49 0
-27 -49 0
27 116 0
-27 -116 0
28 41 0
-28 -41 0
28 61 0
-28 -61 0
28 71 0
-28 -71 0
28 143 0
-28 -143 0
28 172 0
-28 -172 0
28 180 0
-28 -180 0
28 188 0
-28 -188 0
29 41 0
-29 -41 0
29 87 0
-29 -87 0
29 90 0
-29 -90 0
29 101 0
-29 -101 0
29 103 0
-29 -103 0
29 172 0
-29 -172 0
30 71 0
-30 -71 0
30 115 0
-30 -115 0
30 159 0
-30 -159 0
30 163 0
-30 -163 0
30 172 0
-30 -172 0
30 188 0
-30 -188 0
30 190 0
-30 -190 0
31 42 0
-31 -42 0
31 69 0
-31 -69 0
31 103 0
-31 -103 0
31 136 0
-31 -136 0
31 143 0
-31 -143 0
31 190 0
-31 -190 0
32 37 0
-32 -37 0
32 40 0
-32 -40 0
32 61 0
-32 -61 0
32 97 0
-32 -97 0
32 99 0
-32 -99 0
32 119 0
-32 -119 0
32 127 0
-32 -127 0
32 137 0
-32 -137 0
33 109 0
-33 -109 0
33 177 0
-33 -177 0
34 84 0
-34 -84 0
34 111 0
-34 -111 0
34 141 0
-34 -141 0
34 172 0
-34 -172 0
34 185 0
-34 -185 0
35 39 0
-35 -39 0
35 151 0
-35 -151 0
35 164 0
-35 -164 0
35 198 0
-35 -198 0
36 106 0
-36 -106 0
36 109 0
-36 -109 0
36 127 0
-36 -127 0
36 157 0
-36 -157 0
36 172 0
-36 -172 0
37 77 0
-37 -77 0
37 95 0
-37 -95 0
37 109 0
-37 -109 0
37 126 0
-37 -126 0
37 132 0
-37 -132 0
37 185 0
-37 -185 0
38 44 0
-38 -44 0
38 55 0
-38 -55 0
38 96 0
-38 -96 0
38 106 0
-38 -106 0
38 115 0
-38 -115 0
38 190 0
-38 -190 0
39 55 0
-39 -55 0
39 99 0
-39 -99 0
39 109 0
-39 -109 0
39 138 0
-39 -138 0
39 159 0
-39 -159 0
39 200 0
-39 -200 0
40 58 0
-40 -58 0
40 76 0
-40 -76 0
40 102 0
-40 -102 0
40 104 0
-40 -104 0
40 107 0
-40 -107 0
40 134 0
-40 -134 0
40 140 0
-40 -140 0
41 59 0
-41 -59 0
41 84 0
-41 -84 0
42 43 0
-42 -43 0
42 59 0
-42 -59 0
42 91 0
-42 -91 0
42 99 0
-42 -99 0
42 101 0
-42 -101 0
42 110 0
-42 -110 0
42 111 0
-42 -111 0
42 126 0
-42 -126 0
42 127 0
-42 -127 0
42 135 0
-42 -135 0
42 155 0
-42 -155 0
42 167 0
-42 -167 0
43 59 0
-43 -59 0
43 93 0
-43 -93 0
43 124 0
-43 -124 0
43 148 0
-43 -148 0
43 174 0
-43 -174 0
43 184 0
-43 -184 0
44 54 0
-44 -54 0
44 82 0
-44 -82 0
44 86 0
-44 -86 0
44 88 0
-44 -88 0
44 119 0
-44 -119 0
44 165 0
-44 -165 0
44 174 0
-44 -174 0
44 194 0
-44 -194 0
45 92 0
-45 -92 0
45 111 0
-45 -111 0
45 184 0
-45 -184 0
46 77 0
-46 -77 0
46 83 0
-46 -83 0
46 105 0
-46 -105 0
46 106 0
-46 -106 0
46 120 0
-46 -120 0
46 122 0
-46 -122 0
46 141 0
-46 -141 0
46 151 0
-46 -151 0
46 155 0
-46 -155 0
46 178 0
-46 -178 0
47 62 0
-47 -62 0
47 120 0
-47 -120 0
47 135 0
-47 -135 0
47 166 0
-47 -166 0
47 188 0
-47 -188 0
48 106 0
-48 -106 0
48 107 0
-48 -107 0
48 114 0
-48 -114 0
48 124 0
-48 -124 0
48 135 0
-48 -135 0
48 139 0
-48 -139 0
48 160 0
-48 -160 0
49 55 0
-49 -55 0
49 68 0
-49 -68 0
49 112 0
-49 -112 0
49 125 0
-49 -125 0
49 157 0
-49 -157 0
50 172 0
-50 -172 0
50 179 0
-50 -179 0
50 191 0
-50 -191 0
51 74 0
-51 -74 0
51 116 0
-51 -116 0
52 192 0
-52 -192 0
53 73 0
-53 -73 0
53 115 0
-53 -115 0
53 117 0
-53 -117 0
53 130 0
-53 -130 0
53 162 0
-53 -162 0
53 175 0
-53 -175 0
53 179 0
-53 -179 0
54 61 0
-54 -61 0
54 101 0
-54 -101 0
54 121 0
-54 -121 0
54 142 0
-54 -142 0
54 152 0
-54 -152 0
54 161 0
-54 -161 0
54 174 0
-54 -174 0
54 199 0
-54 -199 0
55 58 0
-55 -58 0
55 60 0
-55 -60 0
55 63 0
-55 -63 0
55 159 0
-55 -159 0
55 176 0
-55 -176 0
55 179 0
-55 -179 0
56 62 0
-56 -62 0
56 95 0
-56 -95 0
56 118 0
-56 -118 0
56 179 0
-56 -179 0
56 186 0
-56 -186 0
57 70 0
-57 -70 0
57 74 0
-57 -74 0
57 99 0
-57 -99 0
57 115 0
-57 -115 0
57 155 0
-57 -155 0
57 166 0
-57 -166 0
58 68 0
-58 -68 0
58 73 0
-58 -73 0
58 95 0
-58 -95 0
58 119 0
-58 -119 0
58 174 0
-58 -174 0
58 178 0
-58 -178 0
59 98 0
-59 -98 0
59 101 0
-59 -101 0
59 117 0
-59 -117 0
59 118 0
-59 -118 0
59 149 0
-59 -149 0
59 173 0
-59 -173 0
60 130 0
-60 -130 0
60 144 0
-60 -144 0
60 171 0
-60 -171 0
60 176 0
-60 -176 0
60 195 0
-60 -195 0
61 103 0
-61 -103 0
61 117 0
-61 -117 0
61 134 0
-61 -134 0
61 150 0
-61 -150 0
61 155 0
-61 -155 0
61 163 0
-61 -163 0
61 164 0
-61 -164 0
61 185 0
-61 -185 0
61 197 0
-61 -197 0
62 63 0
-62 -63 0
62 76 0
-62 -76 0
62 86 0
-62 -86 0
62 99 0
-62 -99 0
62 107 0
-62 -107 0
62 109 0
-62 -109 0
62 115 0
-62 -115 0
62 141 0
-62 -141 0
62 155 0
-62 -155 0
63 100 0
-63 -100 0
63 137 0
-63 -137 0
63 145 0
-63 -145 0
63 164 0
-63 -164 0
63 169 0
-63 -169 0
63 171 0
-63 -171 0
64 122 0
-64 -122 0
64 125 0
-64 -125 0
64 129 0
-64 -129 0
64 147 0
-64 -147 0
64 194 0
-64 -194 0
64 195 0
-64 -195 0
65 89 0
-65 -89 0
65 103 0
-65 -103 0
65 134 0
-65 -134 0
65 198 0
-65 -198 0
66 96 0
-66 -96 0
66 100 0
-66 -100 0
66 167 0
-66 -167 0
66 177 0
-66 -177 0
67 96 0
-67 -96 0
67 121 0
-67 -121 0
67 187 0
-67 -187 0
68 72 0
-68 -72 0
68 75 0
-68 -75 0
68 94 0
-68 -94 0
68 101 0
-68 -101 0
68 141 0
-68 -141 0
68 159 0
-68 -159 0
69 74 0
-69 -74 0
69 92 0
-69 -92 0
69 106 0
-69 -106 0
69 123 0
-69 -123 0
69 188 0
-69 -188 0
69 200 0
-69 -200 0
70 109 0
-70 -109 0
70 123 0
-70 -123 0
70 130 0
-70 -130 0
70 132 0
-70 -132 0
70 175 0
-70 -175 0
70 187 0
-70 -187 0
70 190 0
-70 -190 0
71 78 0
-71 -78 0
71 95 0
-71 -95 0
71 113 0
-71 -113 0
71 152 0
-71 -152 0
71 191 0
-71 -191 0
72 137 0
-72 -137 0
72 150 0
-72 -150 0
72 162 0
-72 -162 0
72 183 0
-72 -183 0
73 85 0
-73 -85 0
73 114 0
-73 -114 0
73 119 0
-73 -119 0
73 189 0
-73 -189 0
74 100 0
-74 -100 0
74 152 0
-74 -152 0
74 154 0
-74 -154 0
75 103 0
-75 -103 0
75 105 0
-75 -105 0
76 82 0
-76 -82 0
76 101 0
-76 -101 0
76 111 0
-76 -111 0
76 144 0
-76 -144 0
76 160 0
-76 -160 0
76 166 0
-76 -166 0
78 85 0
-78 -85 0
78 91 0
-78 -91 0
78 117 0
-78 -117 0
78 159 0
-78 -159 0
78 175 0
-78 -175 0
78 177 0
-78 -177 0
79 82 0
-79 -82 0
79 115 0
-79 -115 0
79 125 0
-79 -125 0
79 161 0
-79 -161 0
79 200 0
-79 -200 0
80 100 0
-80 -100 0
80 135 0
-80 -135 0
80 136 0
-80 -136 0
80 138 0
-80 -138 0
80 140 0
-80 -140 0
80 190 0
-80 -190 0
82 104 0
-82 -104 0
82 108 0
-82 -108 0
82 127 0
-82 -127 0
82 133 0
-82 -133 0
82 134 0
-82 -134 0
82 183 0
-82 -183 0
82 184 0
-82 -184 0
83 121 0
-83 -121 0
83 180 0
-83 -180 0
83 181 0
-83 -181 0
84 86 0
-84 -86 0
84 88 0
-84 -88 0
84 96 0
-84 -96 0
84 120 0
-84 -120 0
84 133 0
-84 -133 0
84 138 0
-84 -138 0
84 145 0
-84 -145 0
84 189 0
-84 -189 0
85 113 0
-85 -113 0
85 186 0
-85 -186 0
85 198 0
-85 -198 0
86 87 0
-86 -87 0
86 113 0
-86 -113 0
86 129 0
-86 -129 0
86 143 0
-86 -143 0
86 149 0
-86 -149 0
86 164 0
-86 -164 0
86 182 0
-86 -182 0
86 198 0
-86 -198 0
87 159 0
-87 -159 0
87 169 0
-87 -169 0
87 179 0
-87 -179 0
88 91 0
-88 -91 0
88 103 0
-88 -103 0
88 144 0
-88 -144 0
88 146 0
-88 -146 0
88 147 0
-88 -147 0
89 106 0
-89 -106 0
89 167 0
-89 -167 0
89 179 0
-89 -179 0
90 93 0
-90 -93 0
90 94 0
-90 -94 0
90 119 0
-90 -119 0
90 137 0
-90 -137 0
90 152 0
-90 -152 0
91 92 0
-91 -92 0
91 129 0
-91 -129 0
91 138 0
-91 -138 0
91 183 0
-91 -183 0
91 185 0
-91 -185 0
92 104 0
-92 -104 0
92 132 0
-92 -132 0
92 151 0
-92 -151 0
92 164 0
-92 -164 0
92 193 0
-92 -193 0
92 194 0
-92 -194 0
93 97 0
-93 -97 0
93 147 0
-93 -147 0
93 154 0
-93 -154 0
93 196 0
-93 -196 0
93 199 0
-93 -199 0
94 173 0
-94 -173 0
94 191 0
-94 -191 0
95 106 0
-95 -106 0
95 177 0
-95 -177 0
96 127 0
-96 -127 0
97 116 0
-97 -116 0
97 168 0
-97 -168 0
97 194 0
-97 -194 0
98 103 0
-98 -103 0
98 114 0
-98 -114 0
98 122 0
-98 -122 0
98 123 0
-98 -123 0
98 144 0
-98 -144 0
98 151 0
-98 -151 0
98 182 0
-98 -182 0
99 105 0
-99 -105 0
99 129 0
-99 -129 0
99 130 0
-99 -130 0
99 180 0
-99 -180 0
100 104 0
-100 -104 0
100 127 0
-100 -127 0
100 144 0
-100 -144 0
100 150 0
-100 -150 0
100 196 0
-100 -196 0
101 127 0
-101 -127 0
101 135 0
-101 -135 0
101 143 0
-101 -143 0
101 156 0
-101 -156 0
101 160 0
-101 -160 0
101 187 0
-101 -187 0
102 167 0
-102 -167 0
102 174 0
-102 -174 0
103 114 0
-103 -114 0
103 192 0
-103 -192 0
104 188 0
-104 -188 0
105 112 0
-105 -112 0
105 173 0
-105 -173 0
107 156 0
-107 -156 0
107 168 0
-107 -168 0
108 109 0
-108 -109 0
108 146 0
-108 -146 0
108 151 0
-108 -151 0
108 158 0
-108 -158 0
108 182 0
-108 -182 0
108 183 0
-108 -183 0
109 118 0
-109 -118 0
109 141 0
-109 -141 0
109 182 0
-109 -182 0
109 199 0
-109 -199 0
110 131 0
-110 -131 0
110 168 0
-110 -168 0
110 193 0
-110 -193 0
111 113 0
-111 -113 0
111 148 0
-111 -148 0
111 188 0
-111 -188 0
111 190 0
-111 -190 0
112 160 0
-112 -160 0
112 161 0
-112 -161 0
112 199 0
-112 -199 0
113 134 0
-113 -134 0
113 149 0
-113 -149 0
113 162 0
-113 -162 0
113 171 0
-113 -171 0
113 179 0
-113 -179 0
114 130 0
-114 -130 0
114 138 0
-114 -138 0
114 174 0
-114 -174 0
114 200 0
-114 -200 0
115 144 0
-115 -144 0
116 118 0
-116 -118 0
116 152 0
-116 -152 0
116 194 0
-116 -194 0
117 190 0
-117 -190 0
118 180 0
-118 -180 0
118 184 0
-118 -184 0
118 193 0
-118 -193 0
119 144 0
-119 -144 0
119 197 0
-119 -197 0
120 123 0
-120 -123 0
120 136 0
-120 -136 0
120 149 0
-120 -149 0
120 158 0
-120 -158 0
120 163 0
-120 -163 0
120 189 0
-120 -189 0
121 125 0
-121 -125 0
121 140 0
-121 -140 0
121 198 0
-121 -198 0
122 132 0
-122 -132 0
122 145 0
-122 -145 0
122 152 0
-122 -152 0
122 161 0
-122 -161 0
122 176 0
-122 -176 0
124 138 0
-124 -138 0
124 149 0
-124 -149 0
124 168 0
-124 -168 0
125 132 0
-125 -132 0
125 195 0
-125 -195 0
126 151 0
-126 -151 0
126 158 0
-126 -158 0
126 167 0
-126 -167 0
127 137 0
-127 -137 0
127 191 0
-127 -191 0
128 131 0
-128 -131 0
128 172 0
-128 -172 0
128 185 0
-128 -185 0
129 138 0
-129 -138 0
129 177 0
-129 -177 0
130 132 0
-130 -132 0
130 133 0
-130 -133 0
130 139 0
-130 -139 0
130 154 0
-130 -154 0
130 165 0
-130 -165 0
130 169 0
-130 -169 0
130 179 0
-130 -179 0
131 142 0
-131 -142 0
131 166 0
-131 -166 0
132 151 0
-132 -151 0
132 191 0
-132 -191 0
133 200 0
-133 -200 0
134 152 0
-134 -152 0
134 186 0
-134 -186 0
135 156 0
-135 -156 0
135 185 0
-135 -185 0
137 147 0
-137 -147 0
137 169 0
-137 -169 0
138 141 0
-138 -141 0
138 143 0
-138 -143 0
138 162 0
-138 -162 0
139 197 0
-139 -197 0
140 141 0
-140 -141 0
140 157 0
-140 -157 0
140 182 0
-140 -182 0
140 187 0
-140 -187 0
141 160 0
-141 -160 0
141 189 0
-141 -189 0
142 180 0
-142 -180 0
142 182 0
-142 -182 0
142 184 0
-142 -184 0
143 165 0
-143 -165 0
143 171 0
-143 -171 0
143 197 0
-143 -197 0
144 150 0
-144 -150 0
144 162 0
-144 -162 0
144 192 0
-144 -192 0
144 193 0
-144 -193 0
145 171 0
-145 -171 0
145 181 0
-145 -181 0
146 152 0
-146 -152 0
146 161 0
-146 -161 0
146 176 0
-146 -176 0
146 192 0
-146 -192 0
147 195 0
-147 -195 0
148 150 0
-148 -150 0
148 154 0
-148 -154 0
148 164 0
-148 -164 0
149 177 0
-149 -177 0
149 182 0
-149 -182 0
150 154 0
-150 -154 0
151 191 0
-151 -191 0
152 190 0
-152 -190 0
153 165 0
-153 -165 0
153 175 0
-153 -175 0
154 155 0
-154 -155 0
154 159 0
-154 -159 0
154 176 0
-154 -176 0
154 190 0
-154 -190 0
156 162 0
-156 -162 0
156 191 0
-156 -191 0
158 166 0
-158 -166 0
158 190 0
-158 -190 0
158 200 0
-158 -200 0
159 160 0
-159 -160 0
159 174 0
-159 -174 0
159 178 0
-159 -178 0
159 183 0
-159 -183 0
159 190 0
-159 -190 0
160 166 0
-160 -166 0
160 193 0
-160 -193 0
161 162 0
-161 -162 0
161 191 0
-161 -191 0
163 169 0
-163 -169 0
163 170 0
-163 -170 0
164 173 0
-164 -173 0
165 174 0
-165 -174 0
166 174 0
-166 -174 0
166 188 0
-166 -188 0
167 196 0
-167 -196 0
169 194 0
-169 -194 0
170 179 0
-170 -179 0
170 187 0
-170 -187 0
171 179 0
-171 -179 0
173 197 0
-173 -197 0
173 198 0
-173 -198 0
174 186 0
-174 -186 0
174 192 0
-174 -192 0
174 193 0
-174 -193 0
176 185 0
-176 -185 0
177 186 0
-177 -186 0
177 191 0
-177 -191 0
177 195 0
-177 -195 0
178 189 0
-178 -189 0
178 199 0
-178 -199 0
180 183 0
-180 -183 0
181 191 0
-181 -191 0
186 189 0
-186 -189 0
189 190 0
-189 -190 0
190 195 0
-190 -195 0
193 194 0
-193 -194 0
